; benchmark generated from python API
(set-info :status unknown)
(declare-fun x_month () (_ BitVec 32))
(declare-fun x_year () (_ BitVec 32))
(declare-fun x_day () (_ BitVec 32))
(declare-fun y_month () (_ BitVec 32))
(declare-fun y_year () (_ BitVec 32))
(declare-fun y_day () (_ BitVec 32))
(assert
 (let (($x3149 (= (_ bv6 32) x_month)))
 (let ((?x2517 (ite (or (= (_ bv4 32) x_month) $x3149 (= (_ bv9 32) x_month) (= (_ bv11 32) x_month)) (_ bv30 32) (_ bv31 32))))
 (let (($x1546 (and (= (_ bv0 32) (bvsmod x_year (_ bv4 32))) (and (distinct (_ bv0 32) (bvsmod x_year (_ bv100 32))) true))))
 (let ((?x1916 (ite (= (_ bv2 32) x_month) (ite (or $x1546 (= (_ bv0 32) (bvsmod x_year (_ bv400 32)))) (_ bv29 32) (_ bv28 32)) ?x2517)))
 (let (($x3117 (bvsle x_day ?x1916)))
 (let (($x1781 (bvsle (_ bv1 32) x_day)))
 (let (($x1192 (bvsle (_ bv1 32) x_month)))
 (let (($x1744 (bvsge (_ bv12 32) x_month)))
 (let (($x3998 (bvsle (_ bv1901 32) x_year)))
 (or (and (= (_ bv1900 32) x_year) (bvsle (_ bv3 32) x_month) $x1744 $x1781 $x3117) (and $x3998 (bvsge (_ bv2099 32) x_year) $x1192 $x1744 $x1781 $x3117) (and (= (_ bv2100 32) x_year) $x1192 (bvsge (_ bv2 32) x_month) $x1781 $x3117))))))))))))
(assert
 (let (($x2814 (= (_ bv6 32) y_month)))
 (let ((?x1439 (ite (or (= (_ bv4 32) y_month) $x2814 (= (_ bv9 32) y_month) (= (_ bv11 32) y_month)) (_ bv30 32) (_ bv31 32))))
 (let (($x3161 (and (= (_ bv0 32) (bvsmod y_year (_ bv4 32))) (and (distinct (_ bv0 32) (bvsmod y_year (_ bv100 32))) true))))
 (let ((?x990 (ite (= (_ bv2 32) y_month) (ite (or $x3161 (= (_ bv0 32) (bvsmod y_year (_ bv400 32)))) (_ bv29 32) (_ bv28 32)) ?x1439)))
 (let (($x1943 (bvsle y_day ?x990)))
 (let (($x3769 (bvsle (_ bv1 32) y_day)))
 (let (($x2061 (bvsle (_ bv1 32) y_month)))
 (let (($x4365 (bvsge (_ bv12 32) y_month)))
 (let (($x49305 (bvsle (_ bv1901 32) y_year)))
 (or (and (= (_ bv1900 32) y_year) (bvsle (_ bv3 32) y_month) $x4365 $x3769 $x1943) (and $x49305 (bvsge (_ bv2099 32) y_year) $x2061 $x4365 $x3769 $x1943) (and (= (_ bv2100 32) y_year) $x2061 (bvsge (_ bv2 32) y_month) $x3769 $x1943))))))))))))
(assert
 (let (($x1123 (or (bvslt (_ bv6 32) x_month) (and (= (_ bv6 32) x_month) (bvsle (_ bv1 32) x_day)))))
 (or (bvslt (_ bv2023 32) x_year) (and (= (_ bv2023 32) x_year) $x1123))))
(assert
 (let ((?x1443 (bvadd x_month (bvadd (bvmul (_ bv0 32) (_ bv12 32)) (_ bv1 32)))))
 (let ((?x3206 (bvsub (ite (bvuge ?x1443 (_ bv2147483648 32)) (bvsub ?x1443 (_ bv0 32)) ?x1443) (_ bv1 32))))
 (let ((?x499 (bvsmod ?x3206 (_ bv12 32))))
 (let ((?x4132 (bvadd ?x499 (_ bv1 32))))
 (let (($x1870 (= (_ bv11 32) ?x4132)))
 (let (($x1266 (= (_ bv9 32) ?x4132)))
 (let (($x1938 (= (_ bv6 32) ?x4132)))
 (let (($x997 (= (_ bv4 32) ?x4132)))
 (let ((?x591 (bvsdiv ?x3206 (_ bv12 32))))
 (let ((?x563 (ite (and (bvuge ?x3206 (_ bv2147483648 32)) (and (distinct (_ bv0 32) ?x499) true)) (bvsub ?x591 (_ bv1 32)) ?x591)))
 (let ((?x2689 (bvadd x_year ?x563)))
 (let (($x2102 (or (and (= (_ bv0 32) (bvsmod ?x2689 (_ bv4 32))) (and (distinct (_ bv0 32) (bvsmod ?x2689 (_ bv100 32))) true)) (= (_ bv0 32) (bvsmod ?x2689 (_ bv400 32))))))
 (let (($x4206 (= (_ bv2 32) ?x4132)))
 (let ((?x3348 (ite $x4206 (ite $x2102 (_ bv29 32) (_ bv28 32)) (ite (or $x997 $x1938 $x1266 $x1870) (_ bv30 32) (_ bv31 32)))))
 (let ((?x1411 (ite (bvsgt (_ bv1 32) x_day) (_ bv1 32) (ite (bvsgt x_day ?x3348) ?x3348 x_day))))
 (let ((?x4492 (ite (bvsgt (_ bv1 32) ?x1411) (_ bv1 32) (ite (bvsgt ?x1411 ?x3348) ?x3348 ?x1411))))
 (let ((?x2648 (ite $x4206 (ite $x2102 (_ bv31 32) (_ bv31 32)) (ite (= (_ bv1 32) ?x4132) (ite $x2102 (_ bv0 32) (_ bv0 32)) (_ bv0 32)))))
 (let ((?x1262 (ite $x997 (ite $x2102 (_ bv91 32) (_ bv90 32)) (ite (= (_ bv3 32) ?x4132) (ite $x2102 (_ bv60 32) (_ bv59 32)) ?x2648))))
 (let ((?x2654 (ite $x1938 (ite $x2102 (_ bv152 32) (_ bv151 32)) (ite (= (_ bv5 32) ?x4132) (ite $x2102 (_ bv121 32) (_ bv120 32)) ?x1262))))
 (let ((?x48710 (ite (= (_ bv8 32) ?x4132) (ite $x2102 (_ bv213 32) (_ bv212 32)) (ite (= (_ bv7 32) ?x4132) (ite $x2102 (_ bv182 32) (_ bv181 32)) ?x2654))))
 (let ((?x598 (ite (= (_ bv10 32) ?x4132) (ite $x2102 (_ bv274 32) (_ bv273 32)) (ite $x1266 (ite $x2102 (_ bv244 32) (_ bv243 32)) ?x48710))))
 (let ((?x2056 (ite (= (_ bv12 32) ?x4132) (ite $x2102 (_ bv335 32) (_ bv334 32)) (ite $x1870 (ite $x2102 (_ bv305 32) (_ bv304 32)) ?x598))))
 (let ((?x4204 (bvadd (bvmul (_ bv365 32) (bvsub ?x2689 (_ bv1 32))) (bvsdiv (bvsub ?x2689 (_ bv1 32)) (_ bv4 32)))))
 (let ((?x3332 (bvadd (bvsub ?x4204 (bvsdiv (bvsub ?x2689 (_ bv1 32)) (_ bv100 32))) (bvsdiv (bvsub ?x2689 (_ bv1 32)) (_ bv400 32)))))
 (let ((?x1277 (bvadd (bvadd (bvsub (bvadd (bvadd ?x3332 ?x2056) (bvsub ?x4492 (_ bv1 32))) (_ bv730179 32)) (_ bv0 32)) (_ bv730179 32))))
 (let ((?x1817 (bvsmod ?x1277 (_ bv146097 32))))
 (let ((?x2494 (bvsdiv ?x1817 (_ bv36524 32))))
 (let ((?x3051 (ite (bvsle (_ bv4 32) ?x2494) (_ bv3 32) ?x2494)))
 (let ((?x2083 (bvsub ?x1817 (bvmul ?x3051 (_ bv36524 32)))))
 (let ((?x3653 (bvsmod ?x2083 (_ bv1461 32))))
 (let ((?x4449 (bvsdiv ?x3653 (_ bv365 32))))
 (let ((?x2430 (ite (bvsle (_ bv4 32) ?x4449) (_ bv3 32) ?x4449)))
 (let ((?x2020 (bvadd (bvadd (bvmul (bvsdiv ?x1277 (_ bv146097 32)) (_ bv400 32)) (bvmul ?x3051 (_ bv100 32))) (bvmul (bvsdiv ?x2083 (_ bv1461 32)) (_ bv4 32)))))
 (let ((?x1336 (bvadd (bvadd ?x2020 ?x2430) (_ bv1 32))))
 (let (($x4095 (or (and (= (_ bv0 32) (bvsmod ?x1336 (_ bv4 32))) (and (distinct (_ bv0 32) (bvsmod ?x1336 (_ bv100 32))) true)) (= (_ bv0 32) (bvsmod ?x1336 (_ bv400 32))))))
 (let ((?x3863 (bvsub ?x3653 (bvmul ?x2430 (_ bv365 32)))))
 (let ((?x3673 (ite $x4095 (_ bv31 32) (_ bv31 32))))
 (let (($x4110 (bvsge ?x3863 ?x3673)))
 (let ((?x3917 (ite $x4110 (bvadd (bvsub ?x3863 ?x3673) (_ bv1 32)) (bvadd (bvsub ?x3863 (ite $x4095 (_ bv0 32) (_ bv0 32))) (_ bv1 32)))))
 (let ((?x3878 (ite $x4095 (_ bv60 32) (_ bv59 32))))
 (let (($x4412 (bvsge ?x3863 ?x3878)))
 (let ((?x3186 (ite $x4095 (_ bv91 32) (_ bv90 32))))
 (let (($x1247 (bvsge ?x3863 ?x3186)))
 (let ((?x1720 (ite $x1247 (bvadd (bvsub ?x3863 ?x3186) (_ bv1 32)) (ite $x4412 (bvadd (bvsub ?x3863 ?x3878) (_ bv1 32)) ?x3917))))
 (let ((?x1481 (ite $x4095 (_ bv121 32) (_ bv120 32))))
 (let (($x833 (bvsge ?x3863 ?x1481)))
 (let ((?x1657 (ite $x4095 (_ bv152 32) (_ bv151 32))))
 (let (($x1084 (bvsge ?x3863 ?x1657)))
 (let ((?x1210 (ite $x1084 (bvadd (bvsub ?x3863 ?x1657) (_ bv1 32)) (ite $x833 (bvadd (bvsub ?x3863 ?x1481) (_ bv1 32)) ?x1720))))
 (let ((?x2840 (ite $x4095 (_ bv182 32) (_ bv181 32))))
 (let (($x1528 (bvsge ?x3863 ?x2840)))
 (let ((?x703 (ite $x4095 (_ bv213 32) (_ bv212 32))))
 (let (($x2251 (bvsge ?x3863 ?x703)))
 (let ((?x687 (ite $x2251 (bvadd (bvsub ?x3863 ?x703) (_ bv1 32)) (ite $x1528 (bvadd (bvsub ?x3863 ?x2840) (_ bv1 32)) ?x1210))))
 (let ((?x2828 (ite $x4095 (_ bv244 32) (_ bv243 32))))
 (let (($x4322 (bvsge ?x3863 ?x2828)))
 (let ((?x404 (ite $x4095 (_ bv274 32) (_ bv273 32))))
 (let (($x2550 (bvsge ?x3863 ?x404)))
 (let ((?x4424 (ite $x2550 (bvadd (bvsub ?x3863 ?x404) (_ bv1 32)) (ite $x4322 (bvadd (bvsub ?x3863 ?x2828) (_ bv1 32)) ?x687))))
 (let ((?x500 (ite $x4095 (_ bv305 32) (_ bv304 32))))
 (let (($x1241 (bvsge ?x3863 ?x500)))
 (let ((?x2931 (ite $x4095 (_ bv335 32) (_ bv334 32))))
 (let (($x2228 (bvsge ?x3863 ?x2931)))
 (let ((?x3381 (ite $x2228 (bvadd (bvsub ?x3863 ?x2931) (_ bv1 32)) (ite $x1241 (bvadd (bvsub ?x3863 ?x500) (_ bv1 32)) ?x4424))))
 (let (($x3815 (= (_ bv0 32) (_ bv0 32))))
 (let ((?x3718 (ite $x3815 ?x4492 ?x3381)))
 (let ((?x2932 (ite $x1084 (_ bv6 32) (ite $x833 (_ bv5 32) (ite $x1247 (_ bv4 32) (ite $x4412 (_ bv3 32) (ite $x4110 (_ bv2 32) (_ bv1 32))))))))
 (let ((?x2981 (ite $x1241 (_ bv11 32) (ite $x2550 (_ bv10 32) (ite $x4322 (_ bv9 32) (ite $x2251 (_ bv8 32) (ite $x1528 (_ bv7 32) ?x2932)))))))
 (let ((?x2746 (bvadd (ite $x3815 ?x4132 (ite $x2228 (_ bv12 32) ?x2981)) (bvadd (bvmul (_ bv0 32) (_ bv12 32)) (_ bv0 32)))))
 (let ((?x2918 (bvsub (ite (bvuge ?x2746 (_ bv2147483648 32)) (bvsub ?x2746 (_ bv0 32)) ?x2746) (_ bv1 32))))
 (let ((?x4588 (bvsmod ?x2918 (_ bv12 32))))
 (let ((?x2904 (bvadd ?x4588 (_ bv1 32))))
 (let (($x4047 (= (_ bv11 32) ?x2904)))
 (let (($x4022 (= (_ bv9 32) ?x2904)))
 (let (($x2863 (= (_ bv6 32) ?x2904)))
 (let (($x1257 (= (_ bv4 32) ?x2904)))
 (let ((?x713 (bvsdiv ?x2918 (_ bv12 32))))
 (let ((?x2463 (ite (and (bvuge ?x2918 (_ bv2147483648 32)) (and (distinct (_ bv0 32) ?x4588) true)) (bvsub ?x713 (_ bv1 32)) ?x713)))
 (let ((?x424 (bvadd (ite $x3815 ?x2689 ?x1336) ?x2463)))
 (let (($x2338 (or (and (= (_ bv0 32) (bvsmod ?x424 (_ bv4 32))) (and (distinct (_ bv0 32) (bvsmod ?x424 (_ bv100 32))) true)) (= (_ bv0 32) (bvsmod ?x424 (_ bv400 32))))))
 (let (($x3640 (= (_ bv2 32) ?x2904)))
 (let ((?x3442 (ite $x3640 (ite $x2338 (_ bv29 32) (_ bv28 32)) (ite (or $x1257 $x2863 $x4022 $x4047) (_ bv30 32) (_ bv31 32)))))
 (let ((?x1697 (ite (bvsgt (_ bv1 32) ?x3718) (_ bv1 32) (ite (bvsgt ?x3718 ?x3442) ?x3442 ?x3718))))
 (let ((?x3847 (ite (bvsgt (_ bv1 32) ?x1697) (_ bv1 32) (ite (bvsgt ?x1697 ?x3442) ?x3442 ?x1697))))
 (let ((?x727 (ite $x3640 (ite $x2338 (_ bv31 32) (_ bv31 32)) (ite (= (_ bv1 32) ?x2904) (ite $x2338 (_ bv0 32) (_ bv0 32)) (_ bv0 32)))))
 (let ((?x2075 (ite $x1257 (ite $x2338 (_ bv91 32) (_ bv90 32)) (ite (= (_ bv3 32) ?x2904) (ite $x2338 (_ bv60 32) (_ bv59 32)) ?x727))))
 (let ((?x2924 (ite $x2863 (ite $x2338 (_ bv152 32) (_ bv151 32)) (ite (= (_ bv5 32) ?x2904) (ite $x2338 (_ bv121 32) (_ bv120 32)) ?x2075))))
 (let ((?x2623 (ite (= (_ bv8 32) ?x2904) (ite $x2338 (_ bv213 32) (_ bv212 32)) (ite (= (_ bv7 32) ?x2904) (ite $x2338 (_ bv182 32) (_ bv181 32)) ?x2924))))
 (let ((?x2427 (ite (= (_ bv10 32) ?x2904) (ite $x2338 (_ bv274 32) (_ bv273 32)) (ite $x4022 (ite $x2338 (_ bv244 32) (_ bv243 32)) ?x2623))))
 (let ((?x2333 (ite (= (_ bv12 32) ?x2904) (ite $x2338 (_ bv335 32) (_ bv334 32)) (ite $x4047 (ite $x2338 (_ bv305 32) (_ bv304 32)) ?x2427))))
 (let ((?x1166 (bvadd (bvmul (_ bv365 32) (bvsub ?x424 (_ bv1 32))) (bvsdiv (bvsub ?x424 (_ bv1 32)) (_ bv4 32)))))
 (let ((?x1832 (bvadd (bvsub ?x1166 (bvsdiv (bvsub ?x424 (_ bv1 32)) (_ bv100 32))) (bvsdiv (bvsub ?x424 (_ bv1 32)) (_ bv400 32)))))
 (let ((?x3901 (bvadd (bvadd (bvsub (bvadd (bvadd ?x1832 ?x2333) (bvsub ?x3847 (_ bv1 32))) (_ bv730179 32)) (_ bv15 32)) (_ bv730179 32))))
 (let ((?x2060 (bvsmod ?x3901 (_ bv146097 32))))
 (let ((?x3133 (bvsdiv ?x2060 (_ bv36524 32))))
 (let ((?x2017 (ite (bvsle (_ bv4 32) ?x3133) (_ bv3 32) ?x3133)))
 (let ((?x1854 (bvsub ?x2060 (bvmul ?x2017 (_ bv36524 32)))))
 (let ((?x1819 (bvsmod ?x1854 (_ bv1461 32))))
 (let ((?x41092 (bvsdiv ?x1819 (_ bv365 32))))
 (let ((?x3859 (ite (bvsle (_ bv4 32) ?x41092) (_ bv3 32) ?x41092)))
 (let ((?x6825 (bvadd (bvadd (bvmul (bvsdiv ?x3901 (_ bv146097 32)) (_ bv400 32)) (bvmul ?x2017 (_ bv100 32))) (bvmul (bvsdiv ?x1854 (_ bv1461 32)) (_ bv4 32)))))
 (let ((?x661 (bvadd (bvadd ?x6825 ?x3859) (_ bv1 32))))
 (let (($x1526 (or (and (= (_ bv0 32) (bvsmod ?x661 (_ bv4 32))) (and (distinct (_ bv0 32) (bvsmod ?x661 (_ bv100 32))) true)) (= (_ bv0 32) (bvsmod ?x661 (_ bv400 32))))))
 (let ((?x4064 (bvsub ?x1819 (bvmul ?x3859 (_ bv365 32)))))
 (let ((?x40206 (ite $x1526 (_ bv31 32) (_ bv31 32))))
 (let (($x40735 (bvsge ?x4064 ?x40206)))
 (let ((?x1581 (ite $x40735 (bvadd (bvsub ?x4064 ?x40206) (_ bv1 32)) (bvadd (bvsub ?x4064 (ite $x1526 (_ bv0 32) (_ bv0 32))) (_ bv1 32)))))
 (let ((?x1658 (ite $x1526 (_ bv60 32) (_ bv59 32))))
 (let (($x40651 (bvsge ?x4064 ?x1658)))
 (let ((?x693 (ite $x1526 (_ bv91 32) (_ bv90 32))))
 (let (($x39644 (bvsge ?x4064 ?x693)))
 (let ((?x40332 (ite $x39644 (bvadd (bvsub ?x4064 ?x693) (_ bv1 32)) (ite $x40651 (bvadd (bvsub ?x4064 ?x1658) (_ bv1 32)) ?x1581))))
 (let ((?x3660 (ite $x1526 (_ bv121 32) (_ bv120 32))))
 (let (($x40280 (bvsge ?x4064 ?x3660)))
 (let ((?x2157 (ite $x1526 (_ bv152 32) (_ bv151 32))))
 (let (($x40571 (bvsge ?x4064 ?x2157)))
 (let ((?x38117 (ite $x40571 (bvadd (bvsub ?x4064 ?x2157) (_ bv1 32)) (ite $x40280 (bvadd (bvsub ?x4064 ?x3660) (_ bv1 32)) ?x40332))))
 (let ((?x40610 (ite $x1526 (_ bv182 32) (_ bv181 32))))
 (let (($x2803 (bvsge ?x4064 ?x40610)))
 (let ((?x40745 (ite $x1526 (_ bv213 32) (_ bv212 32))))
 (let (($x1682 (bvsge ?x4064 ?x40745)))
 (let ((?x40451 (ite $x1682 (bvadd (bvsub ?x4064 ?x40745) (_ bv1 32)) (ite $x2803 (bvadd (bvsub ?x4064 ?x40610) (_ bv1 32)) ?x38117))))
 (let ((?x40372 (ite $x1526 (_ bv244 32) (_ bv243 32))))
 (let (($x1983 (bvsge ?x4064 ?x40372)))
 (let ((?x40486 (ite $x1526 (_ bv274 32) (_ bv273 32))))
 (let (($x37591 (bvsge ?x4064 ?x40486)))
 (let ((?x4030 (ite $x37591 (bvadd (bvsub ?x4064 ?x40486) (_ bv1 32)) (ite $x1983 (bvadd (bvsub ?x4064 ?x40372) (_ bv1 32)) ?x40451))))
 (let ((?x40680 (ite $x1526 (_ bv305 32) (_ bv304 32))))
 (let (($x4527 (bvsge ?x4064 ?x40680)))
 (let ((?x40541 (ite $x1526 (_ bv335 32) (_ bv334 32))))
 (let (($x4148 (bvsge ?x4064 ?x40541)))
 (let ((?x3274 (ite $x4148 (bvadd (bvsub ?x4064 ?x40541) (_ bv1 32)) (ite $x4527 (bvadd (bvsub ?x4064 ?x40680) (_ bv1 32)) ?x4030))))
 (let (($x3561 (= (_ bv0 32) (_ bv15 32))))
 (let ((?x3658 (ite $x40571 (_ bv6 32) (ite $x40280 (_ bv5 32) (ite $x39644 (_ bv4 32) (ite $x40651 (_ bv3 32) (ite $x40735 (_ bv2 32) (_ bv1 32))))))))
 (let ((?x3452 (ite $x4527 (_ bv11 32) (ite $x37591 (_ bv10 32) (ite $x1983 (_ bv9 32) (ite $x1682 (_ bv8 32) (ite $x2803 (_ bv7 32) ?x3658)))))))
 (let ((?x3981 (ite $x4148 (_ bv12 32) ?x3452)))
 (and (= (ite $x3561 ?x424 ?x661) y_year) (= (ite $x3561 ?x2904 ?x3981) y_month) (= (ite $x3561 ?x3847 ?x3274) y_day)))))))))))))))))))))))))))))))))))))))))))))))))))))))))))))))))))))))))))))))))))))))))))))))))))))))))))))))))))))))))))))))))))))))))))
(assert
 (let (($x41605 (or (bvslt (_ bv6 32) y_month) (and (= (_ bv6 32) y_month) (bvsle (_ bv1 32) y_day)))))
(or (bvslt (_ bv2023 32) y_year) (and (= (_ bv2023 32) y_year) $x41605))))
(check-sat)
